
;this file is automatically generated: Thu Jan 02 16:54:47 GMT 2020

;declarations generated

(declare-fun oclExcludes ( Int Int) Bool)
(declare-fun class11_Class11IntAttr3 ( Int) Int)
(declare-fun Cardinality ( Int) Int)
(declare-fun obj_0aea978c_5d01_4619_a533_bab3a916dab5 ( Int) Int)
(declare-fun type_3c22be17_7ece_49be_8a82_c2d31f4ae07a_Class2 ( Int) Bool)
(declare-fun type_3c22be17_7ece_49be_8a82_c2d31f4ae07a_Class5 ( Int) Bool)
(declare-fun type_3c22be17_7ece_49be_8a82_c2d31f4ae07a_Class48 ( Int) Bool)
(declare-fun type_3c22be17_7ece_49be_8a82_c2d31f4ae07a_Class46 ( Int) Bool)
(declare-fun oclSelect ( Int Bool) Int)
(declare-fun Enum0 ( Int) Int)
(declare-fun Enum1 ( Int) Int)
(declare-fun Enum2 ( Int) Int)
(declare-fun container_ ( Int) Int)
(declare-fun oclIncludes ( Int Int) Bool)
(declare-fun type_3c22be17_7ece_49be_8a82_c2d31f4ae07a_Class31 ( Int) Bool)
(declare-fun type_3c22be17_7ece_49be_8a82_c2d31f4ae07a_Class19 ( Int) Bool)
(declare-fun type_3c22be17_7ece_49be_8a82_c2d31f4ae07a_Class11 ( Int) Bool)
(declare-fun ObjAt ( Int Int) Int)

;formula(s) generated
(assert (! (forall ((v Int)) (=> (and (and (and (and (and (and ( type_3c22be17_7ece_49be_8a82_c2d31f4ae07a_Class11 v )  ( type_3c22be17_7ece_49be_8a82_c2d31f4ae07a_Class46 v ) ) ( type_3c22be17_7ece_49be_8a82_c2d31f4ae07a_Class48 v ) ) ( type_3c22be17_7ece_49be_8a82_c2d31f4ae07a_Class5 v ) ) ( type_3c22be17_7ece_49be_8a82_c2d31f4ae07a_Class19 v ) ) ( type_3c22be17_7ece_49be_8a82_c2d31f4ae07a_Class2 v ) ) ( type_3c22be17_7ece_49be_8a82_c2d31f4ae07a_Class31 v ) ) (< ( class11_Class11IntAttr3 ( obj_0aea978c_5d01_4619_a533_bab3a916dab5 v )  )  3))):named l0))
(assert (exists ((o Int)) (and (and (and (and (and (and ( type_3c22be17_7ece_49be_8a82_c2d31f4ae07a_Class11 ( obj_0aea978c_5d01_4619_a533_bab3a916dab5 o )  )  ( type_3c22be17_7ece_49be_8a82_c2d31f4ae07a_Class46 ( obj_0aea978c_5d01_4619_a533_bab3a916dab5 o )  ) ) ( type_3c22be17_7ece_49be_8a82_c2d31f4ae07a_Class48 ( obj_0aea978c_5d01_4619_a533_bab3a916dab5 o )  ) ) ( type_3c22be17_7ece_49be_8a82_c2d31f4ae07a_Class5 ( obj_0aea978c_5d01_4619_a533_bab3a916dab5 o )  ) ) ( type_3c22be17_7ece_49be_8a82_c2d31f4ae07a_Class19 ( obj_0aea978c_5d01_4619_a533_bab3a916dab5 o )  ) ) ( type_3c22be17_7ece_49be_8a82_c2d31f4ae07a_Class2 ( obj_0aea978c_5d01_4619_a533_bab3a916dab5 o )  ) ) ( type_3c22be17_7ece_49be_8a82_c2d31f4ae07a_Class31 ( obj_0aea978c_5d01_4619_a533_bab3a916dab5 o )  ) )))

 ;end of formula 